c turning on binary mode checking
c parsing input formula with 202048 variables and 780990 clauses
c finished parsing, read 16534860 bytes from proof file
c detected empty clause; start verification via backward checking
c 12921 of 780990 clauses in core                            
c 15714 of 451540 lemmas in core using 130030 resolution steps
c 0 RAT lemmas in core; 1202 redundant literals in core lemmas
s VERIFIED
c verification time: 2.202 seconds
